p cnf 287 196
1 0
2 0
3 0
4 0
5 0
6 0
7 0
8 0
9 0
10 0
11 0
12 0
13 0
14 0
15 0
16 0
17 0
18 0
19 0
20 0
21 0
22 0
23 0
24 0
25 0
26 0
27 0
28 0
29 0
30 0
31 32 0
33 34 0
35 36 0
37 38 0
39 40 0
41 42 0
43 44 0
45 46 0
47 48 0
49 50 0
51 52 0
53 54 0
55 56 0
57 58 0
59 60 0
61 62 0
63 64 0
65 66 0
67 68 0
69 70 0
71 72 0
73 74 0
75 76 0
77 78 0
79 80 0
81 82 0
83 84 0
85 86 0
87 88 0
89 90 0
91 92 0
93 94 0
95 96 0
97 98 0
99 100 0
101 102 0
103 104 0
105 106 0
107 108 0
109 110 0
111 112 0
113 114 0
115 116 0
117 118 0
119 120 0
121 122 0
123 124 0
125 126 0
127 128 0
129 130 0
131 132 0
133 134 0
135 136 0
137 138 0
139 140 0
141 142 0
143 144 0
145 146 0
147 148 0
149 150 0
151 152 0
153 154 0
155 156 0
157 158 0
159 160 0
161 162 0
163 164 0
165 166 0
167 168 0
169 170 0
171 172 0
173 174 0
175 176 0
177 178 0
179 180 0
181 182 0
183 184 0
185 186 0
187 188 0
189 190 0
191 192 0
193 194 0
195 196 0
197 198 0
199 200 0
201 202 0
203 204 0
205 206 0
207 208 0
209 210 0
211 0
212 0
-211 -213 0
214 0
215 0
216 0
217 0
218 0
219 0
220 0
221 0
222 0
223 0
224 0
225 0
226 0
227 0
228 0
229 0
230 0
231 0
232 0
233 0
234 0
235 0
236 0
237 0
238 0
239 0
240 0
241 0
242 0
243 0
244 0
245 0
-246 -247 0
248 0
249 0
250 0
251 0
252 0
253 0
254 0
255 0
256 0
257 0
258 0
259 0
260 0
261 0
262 0
263 0
264 0
265 0
266 0
267 0
268 0
269 0
270 0
271 0
272 0
273 0
-274 -273 0
275 0
276 0
277 0
278 0
279 0
280 0
281 0
282 0
283 0
284 0
285 0
286 0
-287 -286 0
